WARNING: for repeatability, setting FPU to use double precision
============================[ Problem Statistics ]=============================
|                                                                             |
|  Number of variables:           100                                         |
|  Number of clauses:             449                                         |
|  Parse time:                   0.00 s                                       |
|  Eliminated clauses:           0.00 Mb                                      |
|  Simplification time:          0.00 s                                       |
|                                                                             |
============================[ Search Statistics ]==============================
| Conflicts |          ORIGINAL         |          LEARNT          | Progress |
|           |    Vars  Clauses Literals |    Limit  Clauses Lit/Cl |          |
===============================================================================
|       100 |      98      446     1352 |      163      100      6 |  0.020 % |
|       250 |      95      434     1316 |      179      104      5 |  3.080 % |
===============================================================================
restarts              : 3
conflicts             : 268            (80072 /sec)
decisions             : 352            (0.00 % random) (105169 /sec)
propagations          : 6176           (1845235 /sec)
conflict literals     : 1435           (25.61 % deleted)
Memory used           : 13.00 MB
CPU time              : 0.003347 s

SATISFIABLE
